20 10
63 43 93 2 45 42 74 88 21 79
74 44 99 2 39 23 61 85 39 80
84 50 95 2 55 30 72 82 21 82
63 49 99 3 53 30 79 95 50 75
76 76 95 2 63 48 49 86 37 84
73 54 99 2 47 20 60 74 31 87
89 66 94 2 44 57 60 95 43 78
91 56 97 2 58 45 75 88 41 82
79 47 98 2 66 43 81 73 39 48
91 53 95 4 47 33 73 77 38 85
86 71 98 2 51 27 65 90 37 77
77 49 96 2 67 49 66 72 32 79
74 68 95 3 72 46 73 77 31 90
92 74 88 2 63 36 54 64 59 89
80 47 96 2 48 32 74 77 53 79
54 61 94 2 53 47 61 84 39 71
71 33 96 2 56 40 72 85 45 92
78 53 98 3 41 28 68 83 63 85
71 47 99 2 57 28 61 81 57 71
88 80 97 4 74 31 66 85 57 64
